NAME          DCAP_3_4_2_500_SS108
ROWS
 N  OBJ
 L  CON1
 L  CON2
 L  CON3
 L  CON4
 L  CON5
 L  CON6
 L  CON7
 L  CON8
 L  CON9
 L  CON10
 L  CON11
 L  CON12
 E  CON13
 E  CON14
 E  CON15
 E  CON16
 E  CON17
 E  CON18
 E  CON19
 E  CON20
COLUMNS
    x[1,1]    OBJ       6.180167      CON1      1.000000    
    x[1,1]    CON7      -1.000000     CON8      -1.000000   
    x[1,2]    OBJ       5.039546      CON2      1.000000    
    x[1,2]    CON8      -1.000000   
    x[2,1]    OBJ       6.732585      CON3      1.000000    
    x[2,1]    CON9      -1.000000     CON10     -1.000000   
    x[2,2]    OBJ       7.443064      CON4      1.000000    
    x[2,2]    CON10     -1.000000   
    x[3,1]    OBJ       6.563535      CON5      1.000000    
    x[3,1]    CON11     -1.000000     CON12     -1.000000   
    x[3,2]    OBJ       6.054841      CON6      1.000000    
    x[3,2]    CON12     -1.000000   
    MARKER    'MARKER'                'INTORG'
    u[1,1]    OBJ       48.076654     CON1      -1.000000   
    u[1,2]    OBJ       49.466655     CON2      -1.000000   
    u[2,1]    OBJ       49.996186     CON3      -1.000000   
    u[2,2]    OBJ       32.230043     CON4      -1.000000   
    u[3,1]    OBJ       20.066487     CON5      -1.000000   
    u[3,2]    OBJ       27.484319     CON6      -1.000000   
    y[1,1,1]  OBJ       8.163580      CON7      0.809025    
    y[1,1,1]  CON13     1.000000    
    y[1,1,2]  OBJ       7.688232      CON8      1.441499    
    y[1,1,2]  CON14     1.000000    
    y[1,2,1]  OBJ       5.334405      CON7      0.821674    
    y[1,2,1]  CON15     1.000000    
    y[1,2,2]  OBJ       7.030310      CON8      1.192027    
    y[1,2,2]  CON16     1.000000    
    y[1,3,1]  OBJ       9.236341      CON7      0.723169    
    y[1,3,1]  CON17     1.000000    
    y[1,3,2]  OBJ       9.169135      CON8      1.382583    
    y[1,3,2]  CON18     1.000000    
    y[1,4,1]  OBJ       8.938200      CON7      1.171914    
    y[1,4,1]  CON19     1.000000    
    y[1,4,2]  OBJ       8.635327      CON8      0.989350    
    y[1,4,2]  CON20     1.000000    
    y[2,1,1]  OBJ       9.275249      CON9      0.809025    
    y[2,1,1]  CON13     1.000000    
    y[2,1,2]  OBJ       8.622916      CON10     1.441499    
    y[2,1,2]  CON14     1.000000    
    y[2,2,1]  OBJ       5.258471      CON9      0.821674    
    y[2,2,1]  CON15     1.000000    
    y[2,2,2]  OBJ       5.140676      CON10     1.192027    
    y[2,2,2]  CON16     1.000000    
    y[2,3,1]  OBJ       8.091619      CON9      0.723169    
    y[2,3,1]  CON17     1.000000    
    y[2,3,2]  OBJ       8.007830      CON10     1.382583    
    y[2,3,2]  CON18     1.000000    
    y[2,4,1]  OBJ       9.240014      CON9      1.171914    
    y[2,4,1]  CON19     1.000000    
    y[2,4,2]  OBJ       6.092526      CON10     0.989350    
    y[2,4,2]  CON20     1.000000    
    y[3,1,1]  OBJ       6.521903      CON11     0.809025    
    y[3,1,1]  CON13     1.000000    
    y[3,1,2]  OBJ       8.978421      CON12     1.441499    
    y[3,1,2]  CON14     1.000000    
    y[3,2,1]  OBJ       6.352718      CON11     0.821674    
    y[3,2,1]  CON15     1.000000    
    y[3,2,2]  OBJ       7.927084      CON12     1.192027    
    y[3,2,2]  CON16     1.000000    
    y[3,3,1]  OBJ       6.014395      CON11     0.723169    
    y[3,3,1]  CON17     1.000000    
    y[3,3,2]  OBJ       9.105554      CON12     1.382583    
    y[3,3,2]  CON18     1.000000    
    y[3,4,1]  OBJ       8.666070      CON11     1.171914    
    y[3,4,1]  CON19     1.000000    
    y[3,4,2]  OBJ       5.664173      CON12     0.989350    
    y[3,4,2]  CON20     1.000000    
    z[1,1]    OBJ       841.051367    CON13     1.000000    
    z[1,2]    OBJ       865.145163    CON14     1.000000    
    z[2,1]    OBJ       660.796256    CON15     1.000000    
    z[2,2]    OBJ       752.441405    CON16     1.000000    
    z[3,1]    OBJ       976.532095    CON17     1.000000    
    z[3,2]    OBJ       529.630154    CON18     1.000000    
    z[4,1]    OBJ       738.491682    CON19     1.000000    
    z[4,2]    OBJ       988.719164    CON20     1.000000    
    MARKER    'MARKER'                 'INTEND'
RHS
    RHS       CON1      -0.000000     CON2      -0.000000   
    RHS       CON3      -0.000000     CON4      -0.000000   
    RHS       CON5      -0.000000     CON6      -0.000000   
    RHS       CON7      -0.000000     CON8      -0.000000   
    RHS       CON9      -0.000000     CON10     -0.000000   
    RHS       CON11     -0.000000     CON12     -0.000000   
    RHS       CON13     1.000000      CON14     1.000000    
    RHS       CON15     1.000000      CON16     1.000000    
    RHS       CON17     1.000000      CON18     1.000000    
    RHS       CON19     1.000000      CON20     1.000000    
BOUNDS
 BV BOUND     u[1,1]  
 BV BOUND     u[1,2]  
 BV BOUND     u[2,1]  
 BV BOUND     u[2,2]  
 BV BOUND     u[3,1]  
 BV BOUND     u[3,2]  
 BV BOUND     y[1,1,1]
 BV BOUND     y[1,1,2]
 BV BOUND     y[1,2,1]
 BV BOUND     y[1,2,2]
 BV BOUND     y[1,3,1]
 BV BOUND     y[1,3,2]
 BV BOUND     y[1,4,1]
 BV BOUND     y[1,4,2]
 BV BOUND     y[2,1,1]
 BV BOUND     y[2,1,2]
 BV BOUND     y[2,2,1]
 BV BOUND     y[2,2,2]
 BV BOUND     y[2,3,1]
 BV BOUND     y[2,3,2]
 BV BOUND     y[2,4,1]
 BV BOUND     y[2,4,2]
 BV BOUND     y[3,1,1]
 BV BOUND     y[3,1,2]
 BV BOUND     y[3,2,1]
 BV BOUND     y[3,2,2]
 BV BOUND     y[3,3,1]
 BV BOUND     y[3,3,2]
 BV BOUND     y[3,4,1]
 BV BOUND     y[3,4,2]
 BV BOUND     z[1,1]  
 BV BOUND     z[1,2]  
 BV BOUND     z[2,1]  
 BV BOUND     z[2,2]  
 BV BOUND     z[3,1]  
 BV BOUND     z[3,2]  
 BV BOUND     z[4,1]  
 BV BOUND     z[4,2]  
ENDATA
